CPXPARAM_MIP_Cuts_MIRCut#P20#0#CPXPARAM_MIP_Strategy_BBInterval#P33#2#2.156804#0.559933
CPXPARAM_MIP_Cuts_MIRCut#P20#0#CPXPARAM_MIP_Strategy_SubAlgorithm#P45#2#1.705436#0.442753
CPXPARAM_MIP_Cuts_MIRCut#P20#1#CPXPARAM_MIP_Strategy_BBInterval#P33#2#1.705318#0.442722
CPXPARAM_MIP_Cuts_MIRCut#P20#1#CPXPARAM_MIP_Strategy_SubAlgorithm#P45#2#2.275731#0.590809
CPXPARAM_MIP_Cuts_MIRCut#P20#2#CPXPARAM_MIP_Strategy_BBInterval#P33#2#2.275890#0.590850
CPXPARAM_MIP_Cuts_MIRCut#P20#2#CPXPARAM_MIP_Strategy_SubAlgorithm#P45#2#2.132736#0.553685
CPXPARAM_MIP_Strategy_BBInterval#P33#2#CPXPARAM_MIP_Strategy_SubAlgorithm#P45#2#2.132727#0.553683
CPXPARAM_MIP_Strategy_BBInterval#P33#2#CPXPARAM_MIP_Strategy_SubAlgorithm#P45#3#1.300410#0.337603
CPXPARAM_MIP_Strategy_BBInterval#P33#2#CPXPARAM_MIP_Strategy_SubAlgorithm#P45#4#2.667722#0.692574
CPXPARAM_MIP_Strategy_BBInterval#P33#2#CPXPARAM_Preprocessing_Presolve#P57#1#2.667867#0.692612
CPXPARAM_MIP_Strategy_BBInterval#P33#7#CPXPARAM_MIP_Strategy_SubAlgorithm#P45#2#3.851893#1.000000
CPXPARAM_MIP_Strategy_SubAlgorithm#P45#2#CPXPARAM_Preprocessing_Presolve#P57#1#2.106805#0.546953
CPXPARAM_MIP_Strategy_SubAlgorithm#P45#3#CPXPARAM_Preprocessing_Presolve#P57#1#1.300421#0.337606
CPXPARAM_MIP_Strategy_SubAlgorithm#P45#4#CPXPARAM_Preprocessing_Presolve#P57#1#2.667811#0.692597
